Traveling Salesman Problem/TSP_generados/Aleatorio1620391015_12.tsp
NAME: Aleatorio1620391015_12.tsp
COMMENT: Randomly generated scenario
TYPE: TSP
DIMENSION: 12
EDGE_WEIGHT_TYPE: ATT
NODE_COORD_SECTION
1 26.61 21.89
2 46.32 39.39
3 39.68 13.3
4 39.07 34.12
5 42.46 18.82
6 33.51 7.1
7 16.2 19.95
8 21.65 29.49
9 37.05 48.65
10 44.9 11.46
11 16.18 45.08
12 3.75 13.13
