Traveling Salesman Problem/TSP_generados/Aleatorio1620391015_12.opt.tour
NAME: Aleatorio1620391015_12.opt.tour
COMMENT: Optimal solution for Aleatorio1620391015_12 (161.6922212818307)
TYPE: TOUR
DIMENSION: 12
TOUR_SECTION
1 7 12 6 3 10 5 4 2 9 11 8
-1
EOF
